(set-info :smt-lib-version 2.6)
(set-info :category "crafted")
(set-logic QF_FFA)
(define-sort FF0 () (_ FiniteField 52435875175126190479447740508185965837690552500527637822603658699938581184513))
(declare-fun mul_n35_alt () FF0)
(declare-fun mul_n21_alt () FF0)
(declare-fun mul_n56_alt () FF0)
(declare-fun mul_n24_alt () FF0)
(declare-fun mul_n62_alt () FF0)
(declare-fun mul_n36_alt () FF0)
(declare-fun mul_n71_alt () FF0)
(declare-fun mul_n54_alt () FF0)
(declare-fun mul_n57_alt () FF0)
(declare-fun mul_n66_alt () FF0)
(declare-fun mul_n69_alt () FF0)
(declare-fun mul_n11_alt () FF0)
(declare-fun mul_n49_alt () FF0)
(declare-fun mul_n52_alt () FF0)
(declare-fun mul_n55_alt () FF0)
(declare-fun mul_n58_alt () FF0)
(declare-fun return_n7_alt () FF0)
(declare-fun is_zero_inv_n72_alt () FF0)
(declare-fun mul_n70_alt () FF0)
(declare-fun mul_n41_alt () FF0)
(declare-fun h_n10_alt () FF0)
(declare-fun mul_n22_alt () FF0)
(declare-fun mul_n68_alt () FF0)
(declare-fun mul_n15_alt () FF0)
(declare-fun is_zero_n14_alt () FF0)
(declare-fun a_n0_alt () FF0)
(declare-fun mul_n25_alt () FF0)
(declare-fun mul_n67_alt () FF0)
(declare-fun mul_n17_alt () FF0)
(declare-fun mul_n18_alt () FF0)
(declare-fun mul_n26_alt () FF0)
(declare-fun f_n1_alt () FF0)
(declare-fun mul_n38_alt () FF0)
(declare-fun mul_n63_alt () FF0)
(declare-fun mul_n65_alt () FF0)
(declare-fun is_zero_n46_alt () FF0)
(declare-fun mul_n64_alt () FF0)
(declare-fun j_n3_alt () FF0)
(declare-fun mul_n59_alt () FF0)
(declare-fun mul_n47_alt () FF0)
(declare-fun mul_n61_alt () FF0)
(declare-fun mul_n60_alt () FF0)
(declare-fun b_n8_alt () FF0)
(declare-fun g_n9_alt () FF0)
(declare-fun mul_n12_alt () FF0)
(declare-fun mul_n53_alt () FF0)
(declare-fun c_n6_alt () FF0)
(declare-fun is_zero_n51_alt () FF0)
(declare-fun mul_n42_alt () FF0)
(declare-fun mul_n40_alt () FF0)
(declare-fun is_zero_inv_n50_alt () FF0)
(declare-fun mul_n37_alt () FF0)
(declare-fun mul_n48_alt () FF0)
(declare-fun mul_n44_alt () FF0)
(declare-fun is_zero_inv_n45_alt () FF0)
(declare-fun mul_n20_alt () FF0)
(declare-fun mul_n43_alt () FF0)
(declare-fun is_zero_n32_alt () FF0)
(declare-fun mul_n39_alt () FF0)
(declare-fun is_zero_n34_alt () FF0)
(declare-fun e_n2_alt () FF0)
(declare-fun i_n5_alt () FF0)
(declare-fun mul_n16_alt () FF0)
(declare-fun is_zero_inv_n33_alt () FF0)
(declare-fun mul_n28_alt () FF0)
(declare-fun is_zero_n30_alt () FF0)
(declare-fun d_n4_alt () FF0)
(declare-fun mul_n23_alt () FF0)
(declare-fun is_zero_inv_n31_alt () FF0)
(declare-fun mul_n27_alt () FF0)
(declare-fun is_zero_inv_n29_alt () FF0)
(declare-fun mul_n19_alt () FF0)
(declare-fun is_zero_inv_n13_alt () FF0)
(declare-fun mul_n35 () FF0)
(declare-fun mul_n21 () FF0)
(declare-fun mul_n56 () FF0)
(declare-fun mul_n24 () FF0)
(declare-fun mul_n62 () FF0)
(declare-fun mul_n36 () FF0)
(declare-fun mul_n71 () FF0)
(declare-fun mul_n54 () FF0)
(declare-fun mul_n57 () FF0)
(declare-fun mul_n66 () FF0)
(declare-fun mul_n69 () FF0)
(declare-fun mul_n11 () FF0)
(declare-fun mul_n49 () FF0)
(declare-fun mul_n52 () FF0)
(declare-fun mul_n55 () FF0)
(declare-fun mul_n58 () FF0)
(declare-fun return_n7 () FF0)
(declare-fun is_zero_inv_n72 () FF0)
(declare-fun mul_n70 () FF0)
(declare-fun mul_n41 () FF0)
(declare-fun h_n10 () FF0)
(declare-fun mul_n22 () FF0)
(declare-fun mul_n68 () FF0)
(declare-fun mul_n15 () FF0)
(declare-fun is_zero_n14 () FF0)
(declare-fun a_n0 () FF0)
(declare-fun mul_n25 () FF0)
(declare-fun mul_n67 () FF0)
(declare-fun mul_n17 () FF0)
(declare-fun mul_n18 () FF0)
(declare-fun mul_n26 () FF0)
(declare-fun f_n1 () FF0)
(declare-fun mul_n38 () FF0)
(declare-fun mul_n63 () FF0)
(declare-fun mul_n65 () FF0)
(declare-fun is_zero_n46 () FF0)
(declare-fun mul_n64 () FF0)
(declare-fun j_n3 () FF0)
(declare-fun mul_n59 () FF0)
(declare-fun mul_n47 () FF0)
(declare-fun mul_n61 () FF0)
(declare-fun mul_n60 () FF0)
(declare-fun b_n8 () FF0)
(declare-fun g_n9 () FF0)
(declare-fun mul_n12 () FF0)
(declare-fun mul_n53 () FF0)
(declare-fun c_n6 () FF0)
(declare-fun is_zero_n51 () FF0)
(declare-fun mul_n42 () FF0)
(declare-fun mul_n40 () FF0)
(declare-fun is_zero_inv_n50 () FF0)
(declare-fun mul_n37 () FF0)
(declare-fun mul_n48 () FF0)
(declare-fun mul_n44 () FF0)
(declare-fun is_zero_inv_n45 () FF0)
(declare-fun mul_n20 () FF0)
(declare-fun mul_n43 () FF0)
(declare-fun is_zero_n32 () FF0)
(declare-fun mul_n39 () FF0)
(declare-fun is_zero_n34 () FF0)
(declare-fun e_n2 () FF0)
(declare-fun i_n5 () FF0)
(declare-fun mul_n16 () FF0)
(declare-fun is_zero_inv_n33 () FF0)
(declare-fun mul_n28 () FF0)
(declare-fun is_zero_n30 () FF0)
(declare-fun d_n4 () FF0)
(declare-fun mul_n23 () FF0)
(declare-fun is_zero_inv_n31 () FF0)
(declare-fun mul_n27 () FF0)
(declare-fun is_zero_inv_n29 () FF0)
(declare-fun mul_n19 () FF0)
(declare-fun is_zero_inv_n13 () FF0)
(assert 
  (let ((let0 (as ff0 FF0)))
  (let ((let1 (as ff4 FF0)))
  (let ((let2 mul_n35_alt))
  (let ((let3 (as ff52435875175126190479447740508185965837690552500527637822603658699938581184512 FF0)))
  (let ((let4 mul_n21_alt))
  (let ((let5 (ff.mul let4 let3)))
  (let ((let6 mul_n56_alt))
  (let ((let7 (ff.mul let6 let3)))
  (let ((let8 mul_n24_alt))
  (let ((let9 mul_n62_alt))
  (let ((let10 (ff.mul let9 let3)))
  (let ((let11 mul_n36_alt))
  (let ((let12 mul_n71_alt))
  (let ((let13 mul_n54_alt))
  (let ((let14 mul_n57_alt))
  (let ((let15 (ff.mul let14 let3)))
  (let ((let16 mul_n66_alt))
  (let ((let17 mul_n69_alt))
  (let ((let18 mul_n11_alt))
  (let ((let19 mul_n49_alt))
  (let ((let20 (ff.mul let19 let3)))
  (let ((let21 mul_n52_alt))
  (let ((let22 (ff.mul let21 let3)))
  (let ((let23 mul_n55_alt))
  (let ((let24 (ff.mul let23 let3)))
  (let ((let25 mul_n58_alt))
  (let ((let26 (ff.add let25 let24 let22 let20 let18 let17 let16 let15 let13 let12 let11 let10 let8 let7 let5 let2 let1)))
  (let ((let27 (as ff1 FF0)))
  (let ((let28 return_n7_alt))
  (let ((let29 (ff.mul let28 let3)))
  (let ((let30 (ff.add let29 let27)))
  (let ((let31 (ff.mul let30 let26)))
  (let ((let32 (= let31 let0)))
  (let ((let33 is_zero_inv_n72_alt))
  (let ((let34 (ff.mul let33 let26)))
  (let ((let35 (= let34 let28)))
  (let ((let36 mul_n70_alt))
  (let ((let37 mul_n41_alt))
  (let ((let38 (ff.mul let37 let3)))
  (let ((let39 (ff.add let38 let27)))
  (let ((let40 (ff.mul let39 let36)))
  (let ((let41 (= let40 let12)))
  (let ((let42 h_n10_alt))
  (let ((let43 (ff.mul let42 let3)))
  (let ((let44 (ff.add let43 let27)))
  (let ((let45 (as ff2 FF0)))
  (let ((let46 (ff.mul let42 let45)))
  (let ((let47 (ff.mul let46 let44)))
  (let ((let48 (= let47 let36)))
  (let ((let49 (ff.mul let2 let3)))
  (let ((let50 mul_n22_alt))
  (let ((let51 (ff.mul let50 let3)))
  (let ((let52 (ff.mul let11 let3)))
  (let ((let53 mul_n68_alt))
  (let ((let54 (ff.add let53 let52 let51 let49 let27)))
  (let ((let55 mul_n15_alt))
  (let ((let56 is_zero_n14_alt))
  (let ((let57 a_n0_alt))
  (let ((let58 (ff.mul let57 let3)))
  (let ((let59 (ff.add let58 let56 let55)))
  (let ((let60 (ff.mul let59 let54)))
  (let ((let61 (= let60 let17)))
  (let ((let62 mul_n25_alt))
  (let ((let63 mul_n67_alt))
  (let ((let64 (ff.mul let63 let62)))
  (let ((let65 (= let64 let53)))
  (let ((let66 mul_n17_alt))
  (let ((let67 (ff.mul let62 let3)))
  (let ((let68 mul_n18_alt))
  (let ((let69 (ff.mul let68 let3)))
  (let ((let70 mul_n26_alt))
  (let ((let71 (ff.add let70 let69 let67 let66)))
  (let ((let72 f_n1_alt))
  (let ((let73 (ff.mul let72 let3)))
  (let ((let74 (ff.add let73 let27)))
  (let ((let75 (ff.mul let74 let71)))
  (let ((let76 (= let75 let63)))
  (let ((let77 mul_n38_alt))
  (let ((let78 (ff.mul let77 let3)))
  (let ((let79 mul_n63_alt))
  (let ((let80 (ff.mul let18 let3)))
  (let ((let81 (ff.add let58 let56 let80 let8 let79 let55 let62 let78 let3)))
  (let ((let82 mul_n65_alt))
  (let ((let83 (ff.mul let82 let81)))
  (let ((let84 (= let83 let16)))
  (let ((let85 is_zero_n46_alt))
  (let ((let86 mul_n64_alt))
  (let ((let87 (ff.mul let86 let3)))
  (let ((let88 (ff.add let87 let27)))
  (let ((let89 (ff.mul let88 let85)))
  (let ((let90 (= let89 let82)))
  (let ((let91 j_n3_alt))
  (let ((let92 (ff.add let51 let27)))
  (let ((let93 (ff.mul let92 let91)))
  (let ((let94 (= let93 let86)))
  (let ((let95 (ff.mul let8 let3)))
  (let ((let96 (ff.add let95 let27)))
  (let ((let97 (as ff52435875175126190479447740508185965837690552500527637822603658699938581184511 FF0)))
  (let ((let98 (ff.mul let56 let97)))
  (let ((let99 (ff.mul let77 let45)))
  (let ((let100 (ff.mul let62 let97)))
  (let ((let101 (ff.mul let55 let97)))
  (let ((let102 (ff.mul let57 let45)))
  (let ((let103 (ff.add let102 let101 let100 let99 let98 let45)))
  (let ((let104 (ff.mul let103 let96)))
  (let ((let105 (= let104 let79)))
  (let ((let106 (ff.mul let91 let3)))
  (let ((let107 mul_n59_alt))
  (let ((let108 (ff.mul let107 let3)))
  (let ((let109 mul_n47_alt))
  (let ((let110 (ff.mul let109 let3)))
  (let ((let111 (ff.add let110 let108 let106 let45)))
  (let ((let112 mul_n61_alt))
  (let ((let113 (ff.mul let112 let111)))
  (let ((let114 (= let113 let9)))
  (let ((let115 mul_n60_alt))
  (let ((let116 (ff.add let5 let27)))
  (let ((let117 (ff.mul let116 let115)))
  (let ((let118 (= let117 let112)))
  (let ((let119 b_n8_alt))
  (let ((let120 g_n9_alt))
  (let ((let121 (ff.mul let120 let119)))
  (let ((let122 (= let121 let115)))
  (let ((let123 (ff.add let110 let27)))
  (let ((let124 (ff.mul let91 let97)))
  (let ((let125 (ff.add let124 let45)))
  (let ((let126 (ff.mul let125 let123)))
  (let ((let127 (= let126 let107)))
  (let ((let128 (ff.add let6 let4 let50 let3)))
  (let ((let129 (ff.mul let14 let45)))
  (let ((let130 (ff.mul let8 let97)))
  (let ((let131 (ff.add let130 let129 let45)))
  (let ((let132 (ff.mul let131 let128)))
  (let ((let133 (= let132 let25)))
  (let ((let134 (ff.add let8 let91 let3)))
  (let ((let135 mul_n12_alt))
  (let ((let136 (ff.add let135 let73 let80 let27)))
  (let ((let137 (ff.mul let136 let134)))
  (let ((let138 (= let137 let14)))
  (let ((let139 (ff.mul let4 let97)))
  (let ((let140 (ff.add let139 let45)))
  (let ((let141 (ff.mul let140 let92)))
  (let ((let142 (= let141 let6)))
  (let ((let143 (ff.mul let120 let21)))
  (let ((let144 (= let143 let23)))
  (let ((let145 (ff.mul let56 let3)))
  (let ((let146 (ff.add let21 let145)))
  (let ((let147 mul_n53_alt))
  (let ((let148 (ff.mul let147 let3)))
  (let ((let149 (ff.add let148 let27)))
  (let ((let150 (ff.mul let149 let146)))
  (let ((let151 (= let150 let13)))
  (let ((let152 c_n6_alt))
  (let ((let153 (ff.mul let152 let3)))
  (let ((let154 (ff.add let153 let27)))
  (let ((let155 (ff.mul let66 let3)))
  (let ((let156 (ff.add let155 let27)))
  (let ((let157 (ff.mul let156 let154)))
  (let ((let158 (= let157 let147)))
  (let ((let159 (ff.add let52 let51 let49 let45)))
  (let ((let160 is_zero_n51_alt))
  (let ((let161 (ff.mul let160 let159)))
  (let ((let162 (= let161 let21)))
  (let ((let163 mul_n42_alt))
  (let ((let164 (ff.mul let163 let3)))
  (let ((let165 mul_n40_alt))
  (let ((let166 (ff.add let165 let58 let42 let164 let66 let152 let2 let27)))
  (let ((let167 (ff.mul let160 let166)))
  (let ((let168 (= let167 let0)))
  (let ((let169 (ff.mul let160 let3)))
  (let ((let170 (ff.add let169 let27)))
  (let ((let171 is_zero_inv_n50_alt))
  (let ((let172 (ff.mul let171 let166)))
  (let ((let173 (= let172 let170)))
  (let ((let174 mul_n37_alt))
  (let ((let175 (ff.mul let174 let3)))
  (let ((let176 (ff.add let175 let68 let11 let155 let50 let2)))
  (let ((let177 mul_n48_alt))
  (let ((let178 (ff.add let177 let106 let109)))
  (let ((let179 (ff.mul let178 let176)))
  (let ((let180 (= let179 let19)))
  (let ((let181 (ff.mul let109 let97)))
  (let ((let182 (ff.add let181 let45)))
  (let ((let183 (ff.mul let182 let91)))
  (let ((let184 (= let183 let177)))
  (let ((let185 (ff.add let164 let152)))
  (let ((let186 (ff.mul let85 let3)))
  (let ((let187 (ff.add let186 let27)))
  (let ((let188 (ff.mul let187 let185)))
  (let ((let189 (= let188 let109)))
  (let ((let190 mul_n44_alt))
  (let ((let191 (ff.add let70 let66 let18 let69 let190 let67 let153 let49 let45)))
  (let ((let192 (ff.mul let85 let191)))
  (let ((let193 (= let192 let0)))
  (let ((let194 is_zero_inv_n45_alt))
  (let ((let195 (ff.mul let194 let191)))
  (let ((let196 (= let195 let187)))
  (let ((let197 mul_n20_alt))
  (let ((let198 (ff.mul let197 let3)))
  (let ((let199 (ff.add let198 let27)))
  (let ((let200 mul_n43_alt))
  (let ((let201 (ff.mul let200 let199)))
  (let ((let202 (= let201 let190)))
  (let ((let203 (ff.mul let74 let119)))
  (let ((let204 (= let203 let200)))
  (let ((let205 (ff.mul let165 let3)))
  (let ((let206 (ff.add let205 let152)))
  (let ((let207 (ff.mul let39 let206)))
  (let ((let208 (= let207 let163)))
  (let ((let209 is_zero_n32_alt))
  (let ((let210 (ff.mul let209 let3)))
  (let ((let211 (ff.add let210 let27)))
  (let ((let212 mul_n39_alt))
  (let ((let213 (ff.mul let212 let211)))
  (let ((let214 (= let213 let165)))
  (let ((let215 (ff.add let58 let55 let62 let78 let56)))
  (let ((let216 (ff.mul let56 let215)))
  (let ((let217 (= let216 let212)))
  (let ((let218 (ff.mul let62 let45)))
  (let ((let219 (ff.mul let218 let59)))
  (let ((let220 (= let219 let77)))
  (let ((let221 (ff.add let155 let68 let27)))
  (let ((let222 (ff.mul let2 let45)))
  (let ((let223 (ff.mul let50 let45)))
  (let ((let224 (ff.mul let11 let45)))
  (let ((let225 (ff.add let224 let223 let222 let97)))
  (let ((let226 (ff.mul let225 let221)))
  (let ((let227 (= let226 let174)))
  (let ((let228 (ff.add let49 let27)))
  (let ((let229 (ff.mul let50 let97)))
  (let ((let230 (ff.add let229 let45)))
  (let ((let231 (ff.mul let230 let228)))
  (let ((let232 (= let231 let11)))
  (let ((let233 is_zero_n34_alt))
  (let ((let234 (ff.mul let136 let233)))
  (let ((let235 (= let234 let2)))
  (let ((let236 (as ff3 FF0)))
  (let ((let237 (ff.mul let120 let3)))
  (let ((let238 e_n2_alt))
  (let ((let239 i_n5_alt))
  (let ((let240 mul_n16_alt))
  (let ((let241 (ff.add let209 let240 let198 let73 let80 let239 let238 let135 let237 let236)))
  (let ((let242 (ff.mul let233 let241)))
  (let ((let243 (= let242 let0)))
  (let ((let244 (ff.mul let233 let3)))
  (let ((let245 (ff.add let244 let27)))
  (let ((let246 is_zero_inv_n33_alt))
  (let ((let247 (ff.mul let246 let241)))
  (let ((let248 (= let247 let245)))
  (let ((let249 (as ff5 FF0)))
  (let ((let250 mul_n28_alt))
  (let ((let251 (ff.mul let250 let3)))
  (let ((let252 is_zero_n30_alt))
  (let ((let253 (ff.mul let252 let45)))
  (let ((let254 d_n4_alt))
  (let ((let255 (ff.mul let254 let3)))
  (let ((let256 mul_n23_alt))
  (let ((let257 (ff.mul let70 let3)))
  (let ((let258 (ff.add let257 let256 let255 let155 let253 let4 let68 let251 let237 let62 let249)))
  (let ((let259 (ff.mul let209 let258)))
  (let ((let260 (= let259 let0)))
  (let ((let261 is_zero_inv_n31_alt))
  (let ((let262 (ff.mul let261 let258)))
  (let ((let263 (= let262 let211)))
  (let ((let264 mul_n27_alt))
  (let ((let265 (ff.mul let72 let97)))
  (let ((let266 (ff.add let240 let256 let155 let265 let264 let8 let80 let68 let4 let250 let135 let45)))
  (let ((let267 (ff.mul let252 let266)))
  (let ((let268 (= let267 let0)))
  (let ((let269 (ff.mul let252 let3)))
  (let ((let270 (ff.add let269 let27)))
  (let ((let271 is_zero_inv_n29_alt))
  (let ((let272 (ff.mul let271 let266)))
  (let ((let273 (= let272 let270)))
  (let ((let274 (ff.add let145 let27)))
  (let ((let275 (ff.mul let274 let57)))
  (let ((let276 (= let275 let250)))
  (let ((let277 (ff.mul let256 let3)))
  (let ((let278 (ff.add let277 let27)))
  (let ((let279 (ff.add let130 let45)))
  (let ((let280 (ff.mul let279 let278)))
  (let ((let281 (= let280 let264)))
  (let ((let282 (ff.mul let218 let221)))
  (let ((let283 (= let282 let70)))
  (let ((let284 (ff.mul let119 let3)))
  (let ((let285 (ff.add let284 let27)))
  (let ((let286 (ff.mul let96 let285)))
  (let ((let287 (= let286 let62)))
  (let ((let288 (ff.mul let285 let256)))
  (let ((let289 (= let288 let8)))
  (let ((let290 (ff.mul let238 let3)))
  (let ((let291 (ff.add let290 let27)))
  (let ((let292 (ff.mul let4 let291)))
  (let ((let293 (= let292 let256)))
  (let ((let294 (ff.mul let135 let3)))
  (let ((let295 (ff.add let294 let72 let18)))
  (let ((let296 (ff.mul let18 let295)))
  (let ((let297 (= let296 let50)))
  (let ((let298 (ff.add let106 let27)))
  (let ((let299 (ff.mul let254 let298)))
  (let ((let300 (= let299 let4)))
  (let ((let301 (ff.mul let55 let3)))
  (let ((let302 (ff.add let57 let145 let301 let27)))
  (let ((let303 mul_n19_alt))
  (let ((let304 (ff.mul let303 let302)))
  (let ((let305 (= let304 let197)))
  (let ((let306 (ff.add let237 let27)))
  (let ((let307 (ff.mul let306 let306)))
  (let ((let308 (= let307 let303)))
  (let ((let309 (ff.add let66 let238 let3)))
  (let ((let310 (ff.mul let44 let309)))
  (let ((let311 (= let310 let68)))
  (let ((let312 (ff.mul let240 let3)))
  (let ((let313 (ff.add let312 let294 let72 let18)))
  (let ((let314 (ff.mul let74 let313)))
  (let ((let315 (= let314 let66)))
  (let ((let316 (ff.add let58 let55 let294 let72 let56 let18 let3)))
  (let ((let317 (ff.mul let239 let316)))
  (let ((let318 (= let317 let240)))
  (let ((let319 (ff.mul let102 let274)))
  (let ((let320 (= let319 let55)))
  (let ((let321 (ff.mul let152 let45)))
  (let ((let322 (ff.add let57 let239 let238 let254 let321)))
  (let ((let323 (ff.mul let56 let322)))
  (let ((let324 (= let323 let0)))
  (let ((let325 is_zero_inv_n13_alt))
  (let ((let326 (ff.mul let325 let322)))
  (let ((let327 (= let326 let274)))
  (let ((let328 (ff.mul let18 let45)))
  (let ((let329 (ff.mul let328 let72)))
  (let ((let330 (= let329 let135)))
  (let ((let331 (ff.mul let42 let119)))
  (let ((let332 (= let331 let18)))
  (let ((let333 (and let332 let330 let327 let324 let320 let318 let315 let311 let308 let305 let300 let297 let293 let289 let287 let283 let281 let276 let273 let268 let263 let260 let248 let243 let235 let232 let227 let220 let217 let214 let208 let204 let202 let196 let193 let189 let184 let180 let173 let168 let162 let158 let151 let144 let142 let138 let133 let127 let122 let118 let114 let105 let94 let90 let84 let76 let65 let61 let48 let41 let35 let32)))
  (let ((let334 mul_n35))
  (let ((let335 mul_n21))
  (let ((let336 (ff.mul let335 let3)))
  (let ((let337 mul_n56))
  (let ((let338 (ff.mul let337 let3)))
  (let ((let339 mul_n24))
  (let ((let340 mul_n62))
  (let ((let341 (ff.mul let340 let3)))
  (let ((let342 mul_n36))
  (let ((let343 mul_n71))
  (let ((let344 mul_n54))
  (let ((let345 mul_n57))
  (let ((let346 (ff.mul let345 let3)))
  (let ((let347 mul_n66))
  (let ((let348 mul_n69))
  (let ((let349 mul_n11))
  (let ((let350 mul_n49))
  (let ((let351 (ff.mul let350 let3)))
  (let ((let352 mul_n52))
  (let ((let353 (ff.mul let352 let3)))
  (let ((let354 mul_n55))
  (let ((let355 (ff.mul let354 let3)))
  (let ((let356 mul_n58))
  (let ((let357 (ff.add let356 let355 let353 let351 let349 let348 let347 let346 let344 let343 let342 let341 let339 let338 let336 let334 let1)))
  (let ((let358 return_n7))
  (let ((let359 (ff.mul let358 let3)))
  (let ((let360 (ff.add let359 let27)))
  (let ((let361 (ff.mul let360 let357)))
  (let ((let362 (= let361 let0)))
  (let ((let363 is_zero_inv_n72))
  (let ((let364 (ff.mul let363 let357)))
  (let ((let365 (= let364 let358)))
  (let ((let366 mul_n70))
  (let ((let367 mul_n41))
  (let ((let368 (ff.mul let367 let3)))
  (let ((let369 (ff.add let368 let27)))
  (let ((let370 (ff.mul let369 let366)))
  (let ((let371 (= let370 let343)))
  (let ((let372 h_n10))
  (let ((let373 (ff.mul let372 let3)))
  (let ((let374 (ff.add let373 let27)))
  (let ((let375 (ff.mul let372 let45)))
  (let ((let376 (ff.mul let375 let374)))
  (let ((let377 (= let376 let366)))
  (let ((let378 (ff.mul let334 let3)))
  (let ((let379 mul_n22))
  (let ((let380 (ff.mul let379 let3)))
  (let ((let381 (ff.mul let342 let3)))
  (let ((let382 mul_n68))
  (let ((let383 (ff.add let382 let381 let380 let378 let27)))
  (let ((let384 mul_n15))
  (let ((let385 is_zero_n14))
  (let ((let386 a_n0))
  (let ((let387 (ff.mul let386 let3)))
  (let ((let388 (ff.add let387 let385 let384)))
  (let ((let389 (ff.mul let388 let383)))
  (let ((let390 (= let389 let348)))
  (let ((let391 mul_n25))
  (let ((let392 mul_n67))
  (let ((let393 (ff.mul let392 let391)))
  (let ((let394 (= let393 let382)))
  (let ((let395 mul_n17))
  (let ((let396 (ff.mul let391 let3)))
  (let ((let397 mul_n18))
  (let ((let398 (ff.mul let397 let3)))
  (let ((let399 mul_n26))
  (let ((let400 (ff.add let399 let398 let396 let395)))
  (let ((let401 f_n1))
  (let ((let402 (ff.mul let401 let3)))
  (let ((let403 (ff.add let402 let27)))
  (let ((let404 (ff.mul let403 let400)))
  (let ((let405 (= let404 let392)))
  (let ((let406 mul_n38))
  (let ((let407 (ff.mul let406 let3)))
  (let ((let408 mul_n63))
  (let ((let409 (ff.mul let349 let3)))
  (let ((let410 (ff.add let387 let385 let409 let339 let408 let384 let391 let407 let3)))
  (let ((let411 mul_n65))
  (let ((let412 (ff.mul let411 let410)))
  (let ((let413 (= let412 let347)))
  (let ((let414 is_zero_n46))
  (let ((let415 mul_n64))
  (let ((let416 (ff.mul let415 let3)))
  (let ((let417 (ff.add let416 let27)))
  (let ((let418 (ff.mul let417 let414)))
  (let ((let419 (= let418 let411)))
  (let ((let420 j_n3))
  (let ((let421 (ff.add let380 let27)))
  (let ((let422 (ff.mul let421 let420)))
  (let ((let423 (= let422 let415)))
  (let ((let424 (ff.mul let339 let3)))
  (let ((let425 (ff.add let424 let27)))
  (let ((let426 (ff.mul let385 let97)))
  (let ((let427 (ff.mul let406 let45)))
  (let ((let428 (ff.mul let391 let97)))
  (let ((let429 (ff.mul let384 let97)))
  (let ((let430 (ff.mul let386 let45)))
  (let ((let431 (ff.add let430 let429 let428 let427 let426 let45)))
  (let ((let432 (ff.mul let431 let425)))
  (let ((let433 (= let432 let408)))
  (let ((let434 (ff.mul let420 let3)))
  (let ((let435 mul_n59))
  (let ((let436 (ff.mul let435 let3)))
  (let ((let437 mul_n47))
  (let ((let438 (ff.mul let437 let3)))
  (let ((let439 (ff.add let438 let436 let434 let45)))
  (let ((let440 mul_n61))
  (let ((let441 (ff.mul let440 let439)))
  (let ((let442 (= let441 let340)))
  (let ((let443 mul_n60))
  (let ((let444 (ff.add let336 let27)))
  (let ((let445 (ff.mul let444 let443)))
  (let ((let446 (= let445 let440)))
  (let ((let447 b_n8))
  (let ((let448 g_n9))
  (let ((let449 (ff.mul let448 let447)))
  (let ((let450 (= let449 let443)))
  (let ((let451 (ff.add let438 let27)))
  (let ((let452 (ff.mul let420 let97)))
  (let ((let453 (ff.add let452 let45)))
  (let ((let454 (ff.mul let453 let451)))
  (let ((let455 (= let454 let435)))
  (let ((let456 (ff.add let337 let335 let379 let3)))
  (let ((let457 (ff.mul let345 let45)))
  (let ((let458 (ff.mul let339 let97)))
  (let ((let459 (ff.add let458 let457 let45)))
  (let ((let460 (ff.mul let459 let456)))
  (let ((let461 (= let460 let356)))
  (let ((let462 (ff.add let339 let420 let3)))
  (let ((let463 mul_n12))
  (let ((let464 (ff.add let463 let402 let409 let27)))
  (let ((let465 (ff.mul let464 let462)))
  (let ((let466 (= let465 let345)))
  (let ((let467 (ff.mul let335 let97)))
  (let ((let468 (ff.add let467 let45)))
  (let ((let469 (ff.mul let468 let421)))
  (let ((let470 (= let469 let337)))
  (let ((let471 (ff.mul let448 let352)))
  (let ((let472 (= let471 let354)))
  (let ((let473 (ff.mul let385 let3)))
  (let ((let474 (ff.add let352 let473)))
  (let ((let475 mul_n53))
  (let ((let476 (ff.mul let475 let3)))
  (let ((let477 (ff.add let476 let27)))
  (let ((let478 (ff.mul let477 let474)))
  (let ((let479 (= let478 let344)))
  (let ((let480 c_n6))
  (let ((let481 (ff.mul let480 let3)))
  (let ((let482 (ff.add let481 let27)))
  (let ((let483 (ff.mul let395 let3)))
  (let ((let484 (ff.add let483 let27)))
  (let ((let485 (ff.mul let484 let482)))
  (let ((let486 (= let485 let475)))
  (let ((let487 (ff.add let381 let380 let378 let45)))
  (let ((let488 is_zero_n51))
  (let ((let489 (ff.mul let488 let487)))
  (let ((let490 (= let489 let352)))
  (let ((let491 mul_n42))
  (let ((let492 (ff.mul let491 let3)))
  (let ((let493 mul_n40))
  (let ((let494 (ff.add let493 let387 let372 let492 let395 let480 let334 let27)))
  (let ((let495 (ff.mul let488 let494)))
  (let ((let496 (= let495 let0)))
  (let ((let497 (ff.mul let488 let3)))
  (let ((let498 (ff.add let497 let27)))
  (let ((let499 is_zero_inv_n50))
  (let ((let500 (ff.mul let499 let494)))
  (let ((let501 (= let500 let498)))
  (let ((let502 mul_n37))
  (let ((let503 (ff.mul let502 let3)))
  (let ((let504 (ff.add let503 let397 let342 let483 let379 let334)))
  (let ((let505 mul_n48))
  (let ((let506 (ff.add let505 let434 let437)))
  (let ((let507 (ff.mul let506 let504)))
  (let ((let508 (= let507 let350)))
  (let ((let509 (ff.mul let437 let97)))
  (let ((let510 (ff.add let509 let45)))
  (let ((let511 (ff.mul let510 let420)))
  (let ((let512 (= let511 let505)))
  (let ((let513 (ff.add let492 let480)))
  (let ((let514 (ff.mul let414 let3)))
  (let ((let515 (ff.add let514 let27)))
  (let ((let516 (ff.mul let515 let513)))
  (let ((let517 (= let516 let437)))
  (let ((let518 mul_n44))
  (let ((let519 (ff.add let399 let395 let349 let398 let518 let396 let481 let378 let45)))
  (let ((let520 (ff.mul let414 let519)))
  (let ((let521 (= let520 let0)))
  (let ((let522 is_zero_inv_n45))
  (let ((let523 (ff.mul let522 let519)))
  (let ((let524 (= let523 let515)))
  (let ((let525 mul_n20))
  (let ((let526 (ff.mul let525 let3)))
  (let ((let527 (ff.add let526 let27)))
  (let ((let528 mul_n43))
  (let ((let529 (ff.mul let528 let527)))
  (let ((let530 (= let529 let518)))
  (let ((let531 (ff.mul let403 let447)))
  (let ((let532 (= let531 let528)))
  (let ((let533 (ff.mul let493 let3)))
  (let ((let534 (ff.add let533 let480)))
  (let ((let535 (ff.mul let369 let534)))
  (let ((let536 (= let535 let491)))
  (let ((let537 is_zero_n32))
  (let ((let538 (ff.mul let537 let3)))
  (let ((let539 (ff.add let538 let27)))
  (let ((let540 mul_n39))
  (let ((let541 (ff.mul let540 let539)))
  (let ((let542 (= let541 let493)))
  (let ((let543 (ff.add let387 let384 let391 let407 let385)))
  (let ((let544 (ff.mul let385 let543)))
  (let ((let545 (= let544 let540)))
  (let ((let546 (ff.mul let391 let45)))
  (let ((let547 (ff.mul let546 let388)))
  (let ((let548 (= let547 let406)))
  (let ((let549 (ff.add let483 let397 let27)))
  (let ((let550 (ff.mul let334 let45)))
  (let ((let551 (ff.mul let379 let45)))
  (let ((let552 (ff.mul let342 let45)))
  (let ((let553 (ff.add let552 let551 let550 let97)))
  (let ((let554 (ff.mul let553 let549)))
  (let ((let555 (= let554 let502)))
  (let ((let556 (ff.add let378 let27)))
  (let ((let557 (ff.mul let379 let97)))
  (let ((let558 (ff.add let557 let45)))
  (let ((let559 (ff.mul let558 let556)))
  (let ((let560 (= let559 let342)))
  (let ((let561 is_zero_n34))
  (let ((let562 (ff.mul let464 let561)))
  (let ((let563 (= let562 let334)))
  (let ((let564 (ff.mul let448 let3)))
  (let ((let565 e_n2))
  (let ((let566 i_n5))
  (let ((let567 mul_n16))
  (let ((let568 (ff.add let537 let567 let526 let402 let409 let566 let565 let463 let564 let236)))
  (let ((let569 (ff.mul let561 let568)))
  (let ((let570 (= let569 let0)))
  (let ((let571 (ff.mul let561 let3)))
  (let ((let572 (ff.add let571 let27)))
  (let ((let573 is_zero_inv_n33))
  (let ((let574 (ff.mul let573 let568)))
  (let ((let575 (= let574 let572)))
  (let ((let576 mul_n28))
  (let ((let577 (ff.mul let576 let3)))
  (let ((let578 is_zero_n30))
  (let ((let579 (ff.mul let578 let45)))
  (let ((let580 d_n4))
  (let ((let581 (ff.mul let580 let3)))
  (let ((let582 mul_n23))
  (let ((let583 (ff.mul let399 let3)))
  (let ((let584 (ff.add let583 let582 let581 let483 let579 let335 let397 let577 let564 let391 let249)))
  (let ((let585 (ff.mul let537 let584)))
  (let ((let586 (= let585 let0)))
  (let ((let587 is_zero_inv_n31))
  (let ((let588 (ff.mul let587 let584)))
  (let ((let589 (= let588 let539)))
  (let ((let590 mul_n27))
  (let ((let591 (ff.mul let401 let97)))
  (let ((let592 (ff.add let567 let582 let483 let591 let590 let339 let409 let397 let335 let576 let463 let45)))
  (let ((let593 (ff.mul let578 let592)))
  (let ((let594 (= let593 let0)))
  (let ((let595 (ff.mul let578 let3)))
  (let ((let596 (ff.add let595 let27)))
  (let ((let597 is_zero_inv_n29))
  (let ((let598 (ff.mul let597 let592)))
  (let ((let599 (= let598 let596)))
  (let ((let600 (ff.add let473 let27)))
  (let ((let601 (ff.mul let600 let386)))
  (let ((let602 (= let601 let576)))
  (let ((let603 (ff.mul let582 let3)))
  (let ((let604 (ff.add let603 let27)))
  (let ((let605 (ff.add let458 let45)))
  (let ((let606 (ff.mul let605 let604)))
  (let ((let607 (= let606 let590)))
  (let ((let608 (ff.mul let546 let549)))
  (let ((let609 (= let608 let399)))
  (let ((let610 (ff.mul let447 let3)))
  (let ((let611 (ff.add let610 let27)))
  (let ((let612 (ff.mul let425 let611)))
  (let ((let613 (= let612 let391)))
  (let ((let614 (ff.mul let611 let582)))
  (let ((let615 (= let614 let339)))
  (let ((let616 (ff.mul let565 let3)))
  (let ((let617 (ff.add let616 let27)))
  (let ((let618 (ff.mul let335 let617)))
  (let ((let619 (= let618 let582)))
  (let ((let620 (ff.mul let463 let3)))
  (let ((let621 (ff.add let620 let401 let349)))
  (let ((let622 (ff.mul let349 let621)))
  (let ((let623 (= let622 let379)))
  (let ((let624 (ff.add let434 let27)))
  (let ((let625 (ff.mul let580 let624)))
  (let ((let626 (= let625 let335)))
  (let ((let627 (ff.mul let384 let3)))
  (let ((let628 (ff.add let386 let473 let627 let27)))
  (let ((let629 mul_n19))
  (let ((let630 (ff.mul let629 let628)))
  (let ((let631 (= let630 let525)))
  (let ((let632 (ff.add let564 let27)))
  (let ((let633 (ff.mul let632 let632)))
  (let ((let634 (= let633 let629)))
  (let ((let635 (ff.add let395 let565 let3)))
  (let ((let636 (ff.mul let374 let635)))
  (let ((let637 (= let636 let397)))
  (let ((let638 (ff.mul let567 let3)))
  (let ((let639 (ff.add let638 let620 let401 let349)))
  (let ((let640 (ff.mul let403 let639)))
  (let ((let641 (= let640 let395)))
  (let ((let642 (ff.add let387 let384 let620 let401 let385 let349 let3)))
  (let ((let643 (ff.mul let566 let642)))
  (let ((let644 (= let643 let567)))
  (let ((let645 (ff.mul let430 let600)))
  (let ((let646 (= let645 let384)))
  (let ((let647 (ff.mul let480 let45)))
  (let ((let648 (ff.add let386 let566 let565 let580 let647)))
  (let ((let649 (ff.mul let385 let648)))
  (let ((let650 (= let649 let0)))
  (let ((let651 is_zero_inv_n13))
  (let ((let652 (ff.mul let651 let648)))
  (let ((let653 (= let652 let600)))
  (let ((let654 (ff.mul let349 let45)))
  (let ((let655 (ff.mul let654 let401)))
  (let ((let656 (= let655 let463)))
  (let ((let657 (ff.mul let372 let447)))
  (let ((let658 (= let657 let349)))
  (let ((let659 (and let658 let656 let653 let650 let646 let644 let641 let637 let634 let631 let626 let623 let619 let615 let613 let609 let607 let602 let599 let594 let589 let586 let575 let570 let563 let560 let555 let548 let545 let542 let536 let532 let530 let524 let521 let517 let512 let508 let501 let496 let490 let486 let479 let472 let470 let466 let461 let455 let450 let446 let442 let433 let423 let419 let413 let405 let394 let390 let377 let371 let365 let362)))
  (let ((let660 (= let358 let28)))
  (let ((let661 (not let660)))
  (let ((let662 (= let447 let119)))
  (let ((let663 (= let565 let238)))
  (let ((let664 (= let580 let254)))
  (let ((let665 (= let401 let72)))
  (let ((let666 (= let480 let152)))
  (let ((let667 (= let372 let42)))
  (let ((let668 (= let386 let57)))
  (let ((let669 (= let420 let91)))
  (let ((let670 (= let566 let239)))
  (let ((let671 (= let448 let120)))
  (let ((let672 (and let671 let670 let669 let668 let667 let666 let665 let664 let663 let662)))
  (let ((let673 (and let672 let661 let659 let333)))
  let673
))))))))))))))))))))))))))))))))))))))))))))))))))))))))))))))))))))))))))))))))))))))))))))))))))))))))))))))))))))))))))))))))))))))))))))))))))))))))))))))))))))))))))))))))))))))))))))))))))))))))))))))))))))))))))))))))))))))))))))))))))))))))))))))))))))))))))))))))))))))))))))))))))))))))))))))))))))))))))))))))))))))))))))))))))))))))))))))))))))))))))))))))))))))))))))))))))))))))))))))))))))))))))))))))))))))))))))))))))))))))))))))))))))))))))))))))))))))))))))))))))))))))))))))))))))))))))))))))))))))))))))))))))))))))))))))))))))))))))))))))))))))))))))))))))))))))))))))))))))))))))))))))))))))))))))))))))))))))))))))))))))))))))))))))))))))))))))))))))
)
(check-sat)
